# opt freq 6-31g(d) 5d m062x

[No Title]

0 1
 C                 -1.14905700    1.33883000   -0.16880100
 C                 -1.31191700    2.60850900   -0.73783600
 C                 -0.21189500    3.27941700   -1.25585600
 C                  1.04993600    2.70249100   -1.24254100
 C                  1.22462500    1.44459300   -0.67023100
 C                  0.13932600    0.76113700   -0.10305300
 S                  0.37684500   -0.75437600    0.80834100
 N                  2.53254200    0.89905400   -0.64109100
 C                  2.86804900   -0.30768600   -1.17389700
 C                  4.31091700   -0.73658900   -0.85111600
 O                  2.10777300   -1.01650300   -1.81212900
 N                  4.41437400   -1.03867100    0.57226900
 C                  4.71775800   -1.93962200   -1.68323100
 C                  4.58438500   -0.06177100    1.50360300
 C                  4.53152300   -0.51440800    2.94476200
 O                  4.75029000    1.11217300    1.19231000
 N                 -2.23058900    0.60558000    0.34313000
 C                 -3.53713400    0.99564000    0.44255600
 C                 -4.46130700   -0.13130600    0.94602100
 O                 -3.97926100    2.09313600    0.15371400
 N                 -4.64406600   -1.12421400   -0.10618300
 C                 -5.80289200    0.43170100    1.38210500
 C                 -3.76674500   -2.14691300   -0.28884200
 C                 -4.07726800   -3.09700600   -1.42438200
 O                 -2.78073600   -2.28866200    0.42282600
 H                 -2.29608400    3.05142300   -0.76527500
 H                 -0.35094300    4.26260700   -1.69371000
 H                  1.90692000    3.20548300   -1.67776000
 H                  0.63341200   -1.53750900   -0.25591700
 H                  3.25919800    1.40172600   -0.13362600
 H                  4.98221500    0.10955700   -1.02896100
 H                  4.11923700   -1.95698500    0.87663900
 H                  4.03412700   -2.77426000   -1.50504200
 H                  5.73846100   -2.24081000   -1.43654500
 H                  4.65999100   -1.69820300   -2.74630700
 H                  3.50123800   -0.41452300    3.30089700
 H                  4.84703900   -1.55260700    3.07127900
 H                  5.16634500    0.14183600    3.54013900
 H                 -2.02829500   -0.35966200    0.61041800
 H                 -3.96766800   -0.65365300    1.77183800
 H                 -5.39114200   -0.97765700   -0.77055200
 H                 -6.45465700   -0.37445200    1.72713900
 H                 -5.66436100    1.15162600    2.19101300
 H                 -6.27924000    0.96410400    0.55446300
 H                 -5.06242200   -2.93641400   -1.86746900
 H                 -3.31243100   -2.97840000   -2.19623300
 H                 -4.01062800   -4.11872400   -1.04609400

