! m062x RIJCOSX def2-TZVPP autoaux verytightSCF noautostart miniprint nopop
%maxcore  3500
%pal nprocs  32 end
%cpcm
smd true
SMDsolvent "MeCN"
end
* xyz 0 2
 C                 -0.02659900   -0.71040600   -0.90672100
 C                 -0.09819300   -1.14672900   -2.38809900
 C                 -1.56281900   -1.63812100   -2.61702100
 C                 -2.63801800   -0.63422500   -2.20277700
 C                 -1.09381700    0.30756300   -0.56435100
 H                 -1.68916900   -1.88088100   -3.67976600
 H                 -2.61012700    0.27337000   -2.81982200
 H                 -3.62806200   -1.08699700   -2.31209900
 H                 -0.99648100    1.20449000   -1.18008000
 H                 -1.02641600    0.60296300    0.47704800
 H                 -1.71316700   -2.56112100   -2.04400800
 C                  0.21425600    0.03278200   -3.33867600
 H                  1.27389200    0.30333000   -3.26924000
 H                  0.02057300   -0.27211200   -4.37388200
 H                 -0.37050200    0.93268700   -3.13923600
 C                  0.83190300   -2.30490500   -2.77789600
 H                  0.62936200   -2.59194900   -3.81626900
 H                  1.88443400   -2.00920000   -2.72121600
 H                  0.68391100   -3.18590100   -2.14748500
 C                  0.36715500   -1.61479500    0.18662700
 C                 -0.42574700   -1.72887900    1.35383500
 C                  1.58827600   -2.32577600    0.17037500
 C                 -0.03834700   -2.54390800    2.41203500
 H                 -1.35532400   -1.17934400    1.43259300
 C                  1.97462900   -3.14262300    1.22742800
 H                  2.27074200   -2.18136800   -0.65523800
 C                  1.15730900   -3.26287000    2.35362700
 H                 -0.67323500   -2.60954900    3.29119000
 H                  2.93192800   -3.65166100    1.17726300
 H                  1.46002800   -3.89350500    3.18468200
 S                 -3.69418800    0.51336800   -0.03072700
 O                 -4.28258200    1.55970600   -0.88122000
 O                 -3.19193000    0.87190900    1.30307600
 C                 -4.88111500   -0.81521900    0.10017500
 C                 -4.50285800   -2.02662600    0.68569900
 C                 -6.18216500   -0.60556800   -0.34887400
 C                 -5.45016200   -3.03539800    0.81598200
 H                 -3.47945500   -2.17756400    1.01062000
 C                 -7.12001800   -1.62840000   -0.20579100
 H                 -6.44223600    0.34169900   -0.80794300
 C                 -6.77191700   -2.85140600    0.37819800
 H                 -5.16294800   -3.98384700    1.26267300
 H                 -8.13668300   -1.47395100   -0.55703000
 C                 -7.79269800   -3.94842900    0.55145700
 H                 -8.11804800   -4.01852100    1.59733400
 H                 -8.68185400   -3.76857000   -0.06014000
 H                 -7.37983000   -4.92505900    0.27560200
 N                 -2.42555900   -0.30419000   -0.78655700
 C                  1.23249400    1.68256700    1.83593200
 C                  1.04909200    1.40092500    3.19629600
 C                  1.90156600    0.50232600    3.82971700
 C                  2.96325900   -0.08410400    3.14594200
 C                  3.15285400    0.18904600    1.79123000
 C                  2.26114100    1.03295300    1.10344700
 S                  2.35023900    1.20609000   -0.66764700
 N                  4.23702900   -0.42722500    1.12163900
 C                  5.19909500    0.26159700    0.43347300
 C                  6.24670900   -0.65912600   -0.23516800
 O                  5.25011500    1.47797600    0.33487300
 N                  5.61495200   -1.55588200   -1.20528900
 C                  7.34237900    0.15771300   -0.90683900
 C                  5.07595100   -2.75019800   -0.85647600
 C                  4.52467700   -3.59781700   -1.98602500
 O                  5.05084900   -3.13770400    0.31713000
 N                  0.40623200    2.57067800    1.13833200
 C                 -0.73972700    3.20650300    1.54703300
 C                 -1.47196100    3.94191900    0.40005500
 O                 -1.18713700    3.18919000    2.68334500
 N                 -0.54274400    4.41904200   -0.61975800
 C                 -2.34924000    5.06531300    0.94592100
 C                 -0.48039900    3.92771200   -1.89351100
 C                  0.60419100    4.52947000   -2.76659500
 O                 -1.20731600    3.01991400   -2.29216200
 H                  0.23760000    1.88224300    3.72271300
 H                  1.74790100    0.27618300    4.88069100
 H                  3.65626300   -0.74910400    3.65136100
 H                  1.20924000    0.28217700   -0.89441800
 H                  4.36094800   -1.43333200    1.21581900
 H                  6.66956500   -1.31063000    0.53704400
 H                  5.51263700   -1.22104300   -2.15305700
 H                  6.92158400    0.80754400   -1.68083800
 H                  8.09139500   -0.50426500   -1.35213000
 H                  7.82663800    0.80712700   -0.17451400
 H                  4.53207500   -3.09169500   -2.95585700
 H                  5.12149700   -4.51259700   -2.06014800
 H                  3.50055900   -3.89327900   -1.74328100
 H                  0.67424800    2.70104900    0.16880600
 H                 -2.10708800    3.20316800   -0.09960500
 H                  0.06475400    5.18873100   -0.37255500
 H                 -2.95014600    5.49368000    0.13910100
 H                 -3.00815400    4.66646200    1.71882600
 H                 -1.74194300    5.85861400    1.39818500
 H                  0.90349000    5.53492700   -2.45429800
 H                  1.48414700    3.87698800   -2.72045200
 H                  0.25246800    4.55624400   -3.79983000
*
