# opt=(calcfc,ts,noeigentest) freq b3lyp/6-31G(d) 5d em=gd3bj

TITLE

0 2
  C   -0.4890    1.1791    2.7811
  C   -0.4720   -0.0293    3.7073
  C   -1.2477    0.3917    4.9834
  C   -2.6274    0.9734    4.6920
  C   -1.8750    1.7263    2.5640
  H   -1.3545   -0.4741    5.6391
  H   -3.2799    0.2293    4.2156
  H   -3.0984    1.3028    5.6224
  H   -2.5199    0.9682    2.1027
  H   -1.8607    2.6141    1.9322
  H   -0.6616    1.1518    5.5048
  C   -1.1410   -1.2547    3.0692
  H   -0.5367   -1.6193    2.2416
  H   -1.2270   -2.0509    3.8057
  H   -2.1296   -1.0362    2.6822
  C    0.9337   -0.4485    4.1475
  H    0.8575   -1.2081    4.9232
  H    1.4802   -0.8777    3.3128
  H    1.4969    0.3925    4.5436
  C    0.5889    2.1614    2.7451
  C    0.3254    3.5161    3.0033
  C    1.8944    1.8215    2.3587
  C    1.3233    4.4638    2.9069
  H   -0.6648    3.8144    3.3097
  C    2.8866    2.7738    2.2574
  H    2.1206    0.8039    2.0825
  C    2.6083    4.1031    2.5328
  H    1.0945    5.4977    3.1209
  H    3.8773    2.4788    1.9440
  H    3.3822    4.8509    2.4471
  S   -3.8787    2.9999    3.5697
  O   -4.9294    2.1562    3.0657
  O   -3.5078    4.1345    2.7767
  C   -4.2787    3.5340    5.2260
  C   -3.4005    4.3782    5.8778
  C   -5.4368    3.0966    5.8374
  C   -3.6886    4.7875    7.1669
  H   -2.5115    4.7052    5.3633
  C   -5.7200    3.5125    7.1270
  H   -6.0963    2.4416    5.2902
  C   -4.8499    4.3597    7.8056
  H   -3.0097    5.4481    7.6859
  H   -6.6253    3.1781    7.6118
  C   -5.1438    4.7892    9.2096
  H   -4.7756    5.7958    9.3920
  H   -6.2114    4.7595    9.4106
  H   -4.6486    4.1186    9.9124
  N   -2.4657    2.1282    3.8399
  C   -0.6868    2.5381   -0.8109
  C   -0.3848    3.8492   -1.1576
  C    0.9320    4.2289   -1.3446
  C    1.9562    3.3067   -1.2448
  C    1.6702    1.9867   -0.9184
  C    0.3568    1.6125   -0.6483
  S   -0.0000    0.0000    0.0000
  N    2.7117    1.0462   -0.8565
  C    2.6851   -0.1518   -1.4867
  C    3.9659   -0.9711   -1.2133
  O    1.7844   -0.5533   -2.1867
  N    4.0662   -1.2792    0.2040
  C    3.9684   -2.2521   -2.0307
  C    4.6082   -0.4354    1.1027
  C    4.7041   -0.9856    2.5059
  O    5.0058    0.6754    0.7911
  N   -1.9837    2.0883   -0.5931
  C   -3.1641    2.7539   -0.7194
  C   -4.3703    1.8717   -0.3430
  O   -3.2824    3.8971   -1.0909
  N   -4.2269    0.5325   -0.8817
  C   -5.6635    2.5159   -0.8240
  C   -3.8866   -0.5514   -0.1518
  C   -3.7963   -1.8313   -0.9498
  O   -3.6345   -0.4907    1.0369
  H   -1.1877    4.5587   -1.2627
  H    1.1578    5.2553   -1.5893
  H    2.9819    3.5943   -1.4174
  H   -0.2317    0.5587    1.3178
  H    3.5773    1.3309   -0.4057
  H    4.8304   -0.3439   -1.4656
  H    3.6699   -2.1561    0.5027
  H    3.0737   -2.8309   -1.8129
  H    4.8523   -2.8463   -1.8114
  H    3.9569   -2.0075   -3.0887
  H    3.7987   -1.5195    2.7829
  H    5.5460   -1.6735    2.5632
  H    4.8739   -0.1689    3.2017
  H   -2.0186    1.1153   -0.2966
  H   -4.3940    1.7853    0.7517
  H   -4.4111    0.4251   -1.8674
  H   -6.5199    1.9339   -0.4951
  H   -5.7314    3.5162   -0.4081
  H   -5.6698    2.5936   -1.9100
  H   -4.6234   -1.9221   -1.6487
  H   -2.8595   -1.8329   -1.5054
  H   -3.7939   -2.6779   -0.2695

