# opt freq 6-311g(d,p) geom=connectivity 5d m062x

Title Card Required

0 2
 C                 -0.85202200    6.25852700    9.55409500
 C                 -2.22889200    6.01677300    8.90978800
 C                 -2.61306100    4.56175700    9.29936400
 C                 -2.56222100    4.28899700   10.79898000
 C                 -0.87409700    6.04037600   11.04999800
 H                 -3.62598000    4.35123000    8.92056800
 H                 -3.33557400    4.85844200   11.34602600
 H                 -2.74556800    3.22104400   10.98803600
 H                 -1.60337500    6.70930500   11.54181200
 H                  0.10645800    6.24450500   11.48782200
 H                 -1.91509100    3.87233500    8.79741000
 C                 -3.29351100    6.99408600    9.44298400
 H                 -3.08982400    8.01703000    9.09322000
 H                 -4.27867100    6.70882400    9.04521700
 H                 -3.36956000    7.01280500   10.53734700
 C                 -2.25058200    6.12836000    7.38683400
 H                 -3.26131200    5.88679700    7.02206800
 H                 -2.02805100    7.16052600    7.07885200
 H                 -1.53662700    5.45050300    6.89845800
 C                  0.42375500    5.93925800    8.88722900
 C                  1.41200900    5.18312100    9.56058900
 C                  0.75672100    6.44422700    7.61070700
 C                  2.63736400    4.90570900    8.96306800
 H                  1.21614300    4.79690200   10.56176500
 C                  1.98928100    6.17700800    7.02484900
 H                  0.06093700    7.10425100    7.09207700
 C                  2.93255500    5.39348500    7.68924500
 H                  3.36970600    4.30197200    9.50281100
 H                  2.22104600    6.58908100    6.04145700
 H                  3.89527400    5.18030400    7.22194500
 S                 -0.78479800    4.01677400   12.77168700
 O                 -1.81580000    4.24133000   13.77301700
 O                  0.56924700    4.50351000   13.00469500
 C                 -0.73482900    2.27539300   12.42377400
 C                  0.07199300    1.79792700   11.38940000
 C                 -1.47316400    1.41536000   13.22740900
 C                  0.12867300    0.42897800   11.16469800
 H                  0.63212000    2.49528100   10.76328900
 C                 -1.39906800    0.04287200   12.98883200
 H                 -2.09562900    1.82808100   14.02244500
 C                 -0.60128500   -0.46843200   11.96145100
 H                  0.75078000    0.04214100   10.35474900
 H                 -1.97520000   -0.64244600   13.61338600
 C                 -0.51101700   -1.94885900   11.70683400
 H                  0.50172400   -2.31807700   11.92682200
 H                 -1.21959400   -2.50665600   12.33160400
 H                 -0.72224000   -2.17956400   10.65300400
 N                 -1.22938000    4.63293400   11.28519000

 1 2 1.0 5 1.0 20 1.0
 2 3 1.0 12 1.0 16 1.0
 3 4 1.0 6 1.0 11 1.0
 4 7 1.0 8 1.0 48 1.0
 5 9 1.0 10 1.0 48 1.0
 6
 7
 8
 9
 10
 11
 12 13 1.0 14 1.0 15 1.0
 13
 14
 15
 16 17 1.0 18 1.0 19 1.0
 17
 18
 19
 20 21 1.5 22 1.5
 21 23 1.5 24 1.0
 22 25 1.5 26 1.0
 23 27 1.5 28 1.0
 24
 25 27 1.5 29 1.0
 26
 27 30 1.0
 28
 29
 30
 31 32 2.0 33 2.0 34 1.0 48 1.0
 32
 33
 34 35 1.5 36 1.5
 35 37 1.5 38 1.0
 36 39 1.5 40 1.0
 37 41 1.5 42 1.0
 38
 39 41 1.5 43 1.0
 40
 41 44 1.0
 42
 43
 44 45 1.0 46 1.0 47 1.0
 45
 46
 47
 48

