# opt freq 6-311g(d,p) 5d m062x

Title Card Required

0 1
O       1.44764900      8.13533500     11.08307600
O      -0.10569900      9.75822200     12.64196000
O       0.79303000     10.40162100      7.02570800
O      -1.07909200     11.81575500      5.84855600
C       1.97489400      8.58063700      9.90675600
C       3.31663600      8.36833300      9.59562900
C       3.84951000      8.86119400      8.40194300
C       3.02335800      9.58884600      7.53079600
C       1.67002900      9.75681400      7.82428900
C       1.11787400      9.22034700      9.00237300
C       1.98051100      8.62476300     12.31658100
C       1.70905700      7.57086500     13.37093400
C       1.27548800      9.98200500     12.63574300
C       1.66727500     10.46912100     14.02776700
C       3.00528900     10.71881600     14.35638300
C       3.34779000     11.14293100     15.63439900
C       2.36912800     11.34168300     16.60929900
C       1.04416200     11.09614700     16.27779100
C       0.68822700     10.65713200     14.99993500
C       1.62463700     11.05460900     11.58353500
C       2.92219100     11.23297400     11.08692200
C       3.16638900     12.12362500     10.04788900
C       2.13067500     12.86467600      9.47999100
C       0.84869900     12.70202700      9.98505400
C       0.59726100     11.82605900     11.04299900
C       1.15282400     10.96553700      5.77842100
C       1.81409000     12.31993200      5.96479100
C      -0.21545900     11.05263300      5.05477900
C      -0.06515300     11.77285000      3.71708100
C      -0.66303600     13.01464400      3.52425400
C      -0.49926800     13.68951200      2.31074400
C       0.25854400     13.14514800      1.28463700
C       0.85686600     11.89894300      1.48412600
C       0.69615500     11.21528800      2.68197300
C      -0.81080800      9.65180800      4.83042700
C      -0.03850500      8.53833400      4.47434000
C      -0.64567900      7.31403000      4.21069600
C      -2.02738200      7.16091000      4.31420600
C      -2.78639200      8.25514000      4.70469400
C      -2.19106200      9.49322300      4.94961100
H      -0.34895400      9.41233500     11.76435300
H      -1.02569200     11.47842400      6.75749800
H       3.94458800      7.82607900     10.30378100
H       3.44021500      9.97979600      6.60338000
H       3.06616100      8.78204700     12.20840500
H       0.63008300      7.49296800     13.56075900
H       2.21138700      7.82391000     14.31334900
H       2.06460800      6.59156300     13.02620700
H       3.80045100     10.59069800     13.62152400
H       2.63877500     11.68624400     17.60798200
H      -0.35408000     10.45684600     14.75246700
H       3.75923000     10.64118300     11.45691800
H       2.32027300     13.54735900      8.65141700
H      -0.41912000     11.70048400     11.41647800
H       1.82222300     10.28274300      5.23013200
H       1.09710200     13.01614000      6.42249500
H       2.14185100     12.73159200      5.00097500
H       2.69094700     12.22333400      6.61924800
H      -1.25678100     13.45173600      4.32717500
H       0.38168900     13.67886200      0.34138500
H       1.16738500     10.23817100      2.79395200
H       1.04738900      8.60067200      4.39495900
H      -2.49922700      6.19668600      4.12029100
H      -2.80009500     10.34817400      5.24626300
S      -0.62191800      9.32814600      9.30260900
H      -0.77516900      7.90041500      9.46720700
C      -0.85202200      6.25852700      9.55409500
C      -2.22889200      6.01677300      8.90978800
C      -2.61306100      4.56175700      9.29936400
C      -2.56222100      4.28899700     10.79898000
C      -0.87409700      6.04037600     11.04999800
H      -3.62598000      4.35123000      8.92056800
H      -3.33557400      4.85844200     11.34602600
H      -2.74556800      3.22104400     10.98803600
H      -1.60337500      6.70930500     11.54181200
H       0.10645800      6.24450500     11.48782200
H      -1.91509100      3.87233500      8.79741000
C      -3.29351100      6.99408600      9.44298400
H      -3.08982400      8.01703000      9.09322000
H      -4.27867100      6.70882400      9.04521700
H      -3.36956000      7.01280500     10.53734700
C      -2.25058200      6.12836000      7.38683400
H      -3.26131200      5.88679700      7.02206800
H      -2.02805100      7.16052600      7.07885200
H      -1.53662700      5.45050300      6.89845800
C       0.42375500      5.93925800      8.88722900
C       1.41200900      5.18312100      9.56058900
C       0.75672100      6.44422700      7.61070700
C       2.63736400      4.90570900      8.96306800
H       1.21614300      4.79690200     10.56176500
C       1.98928100      6.17700800      7.02484900
H       0.06093700      7.10425100      7.09207700
C       2.93255500      5.39348500      7.68924500
H       3.36970600      4.30197200      9.50281100
H       2.22104600      6.58908100      6.04145700
H       3.89527400      5.18030400      7.22194500
S      -0.78479800      4.01677400     12.77168700
O      -1.81580000      4.24133000     13.77301700
O       0.56924700      4.50351000     13.00469500
C      -0.73482900      2.27539300     12.42377400
C       0.07199300      1.79792700     11.38940000
C      -1.47316400      1.41536000     13.22740900
C       0.12867300      0.42897800     11.16469800
H       0.63212000      2.49528100     10.76328900
C      -1.39906800      0.04287200     12.98883200
H      -2.09562900      1.82808100     14.02244500
C      -0.60128500     -0.46843200     11.96145100
H       0.75078000      0.04214100     10.35474900
H      -1.97520000     -0.64244600     13.61338600
C      -0.51101700     -1.94885900     11.70683400
H       0.50172400     -2.31807700     11.92682200
H      -1.21959400     -2.50665600     12.33160400
H      -0.72224000     -2.17956400     10.65300400
N      -1.22938000      4.63293400     11.28519000
C      -4.26591100      8.11230700      4.95106300
C       0.17131600      6.11089900      3.81607900
C      -1.15816700     15.03635300      2.15138800
C       1.67368600     11.30996600      0.36276800
C       4.79379200     11.35582200     16.00105000
C      -0.05401000     11.31334700     17.28764700
C       4.56264800     12.30190600      9.51528700
C      -0.31775000     13.39662200      9.33639500
F      -1.10366800     13.99155100     10.22767500
F       0.07343500     14.31434200      8.45157800
F      -1.08511900     12.51472500      8.67222800
F       5.12942600     13.41633900      9.97470000
F       4.55903900     12.39939300      8.17486600
F       5.35596400     11.28346500      9.83971000
F       4.94838100     12.44267600     16.75657900
F       5.56251800     11.49634800     14.92016700
F       5.27348600     10.32329900     16.69752700
F      -2.46907300     14.96095700      2.38005700
F      -0.66038500     15.91988500      3.01771700
F      -0.98629600     15.53105000      0.92634500
F       2.66512200     12.12938700      0.00922400
F       0.92816700     11.10866500     -0.72374500
F       2.21713400     10.14118400      0.70334700
F      -4.96801600      9.02744500      4.28714400
F      -4.54472500      8.27128100      6.24999400
F      -4.71590700      6.90956400      4.59346700
F      -0.23145500      5.61612200      2.64681900
F       1.46976400      6.40301800      3.70594300
F       0.05459400      5.12957300      4.71446500
F      -0.87345600     12.29351300     16.90400000
F       0.43070200     11.63905900     18.48556800
F      -0.79860700     10.21754600     17.43444400
C       5.26704900      8.59618200      8.04701200
C       6.02259600      9.53265700      7.32739800
C       5.87524400      7.38861900      8.41956600
C       7.34661900      9.26725800      6.98781200
H       5.58083700     10.49495000      7.06506600
C       7.19934000      7.12305500      8.07786300
H       5.29367200      6.64030300      8.96129000
C       7.93963600      8.06101900      7.35959400
H       7.92231100     10.01286700      6.43753800
H       7.65356800      6.17503300      8.36992600
H       8.97694000      7.85409400      7.09292000

