# opt freq 6-311g(d,p) 5d m062x

Title Card Required

0 1
O       1.89791800      8.16320700     11.53639100
O       0.34193900      9.57581900     13.26424300
O       0.87078000     10.59136700      7.64683400
O      -1.32817600     11.08344300      6.40130100
C       2.31586500      8.68964300     10.34831500
C       3.64991400      8.57846500      9.95312200
C       4.08208500      9.17565600      8.76708300
C       3.16794200      9.90146800      7.98810000
C       1.82364800      9.95503400      8.35397200
C       1.36935100      9.31502300      9.52605600
C       2.48308400      8.64184100     12.74796500
C       2.37828700      7.51839600     13.75962600
C       1.69704400      9.91821000     13.18912900
C       2.13904700     10.35421300     14.58310300
C       3.46099400     10.73926200     14.83461700
C       3.85583800     11.10230700     16.11694100
C       2.94374500     11.10662600     17.17279700
C       1.63237800     10.72997300     16.91686500
C       1.22638800     10.35051800     15.63526800
C       1.89411400     11.07234000     12.18456100
C       3.13200600     11.36678600     11.60013100
C       3.23681500     12.34667100     10.61854100
C       2.11577200     13.06008300     10.19840300
C       0.88998100     12.77805300     10.78647400
C       0.78050200     11.81381900     11.78900400
C       1.07662300     11.23827200      6.40052900
C       1.26810900     12.72297800      6.64381500
C      -0.19664400     10.86144400      5.59294400
C      -0.32249500     11.75826800      4.36989100
C      -1.28948200     12.75682600      4.32648500
C      -1.39997500     13.57503200      3.19892200
C      -0.53983000     13.42606600      2.12048900
C       0.44185600     12.43341100      2.17853100
C       0.54530000     11.59707300      3.28288800
C      -0.16094300      9.38921100      5.15586900
C       0.80292500      8.48307200      5.58724400
C       0.74810800      7.14377400      5.19670800
C      -0.26820800      6.67683400      4.37575700
C      -1.22747100      7.58769200      3.92991400
C      -1.17640900      8.92253000      4.31085700
H       0.07432000      9.26921800     12.37821100
H      -1.12981900     10.73092600      7.28575300
H       4.34227100      7.99925200     10.56603700
H       3.52969000     10.43251200      7.10812200
H       3.54166200      8.89372400     12.57283700
H       1.32222100      7.32252700     13.98891300
H       2.89922300      7.77609500     14.69024100
H       2.82821500      6.60990700     13.33931700
H       4.20081200     10.77142100     14.03406800
H       3.25243200     11.40564300     18.17470600
H       0.19601500     10.05023200     15.44569700
H       4.03085900     10.80811500     11.85911400
H       2.19660000     13.82419000      9.42400600
H      -0.19029300     11.60229200     12.23612600
H       1.95085100     10.82268900      5.87735000
H       0.37481800     13.13712100      7.13257000
H       1.45292100     13.26237900      5.70609700
H       2.13856700     12.86079000      7.30082500
H      -1.95958300     12.88876800      5.17656900
H      -0.63519400     14.06323100      1.24060600
H       1.29361800     10.80133200      3.28620900
H       1.62605800      8.77709000      6.23546000
H      -0.32498400      5.62713500      4.08863900
H      -1.94347500      9.61428100      3.95211500
S      -0.33273300      9.45007100      9.99083800
C      -2.50777700      6.62831900     10.75771900
C      -3.70296400      5.71718800     10.36088800
C      -4.49671800      6.24316400      9.17012500
C      -2.42503600      7.26568200      8.29403700
H      -5.26702900      5.52001600      8.87732800
H      -3.31589800      4.71691400     10.10952900
H      -4.37128500      5.61191900     11.23048900
H      -1.78750100      7.26155800      7.39851300
H      -2.74453900      8.30931000      8.47994400
H      -4.99943500      7.19767800      9.42052900
N      -3.58744800      6.41102200      8.04316800
C      -3.04572800      7.99438000     11.22464900
H      -3.84780000      7.83690900     11.96142600
H      -2.25777300      8.57679800     11.72242300
H      -3.45927500      8.60966400     10.41431300
C      -1.77974300      5.99025400     11.94123400
H      -0.92892900      6.61152700     12.26079500
H      -2.47383000      5.91185900     12.79137300
H      -1.40825200      4.98439600     11.70409400
C      -0.60540900      5.73754000      9.17310500
C      -0.73216100      4.90167800      8.04361000
C       0.54627700      5.60650700      9.97185000
C       0.22517400      3.92837600      7.77272000
H      -1.60282800      4.99548200      7.39211800
C       1.51535600      4.65349100      9.67361600
H       0.70067000      6.28099000     10.81453500
C       1.35111400      3.79803900      8.58459300
H       0.09502900      3.27575800      6.90853200
H       2.40910400      4.58379000     10.29604600
H       2.10715300      3.04509200      8.35743700
S      -4.19917700      6.38058300      6.49948600
O      -3.03898700      6.20170800      5.63750300
O      -5.29725000      5.43316600      6.49968500
C      -4.86518400      7.99947600      6.19413500
C      -3.99792600      9.08598700      6.07018400
C      -6.24273500      8.16305800      6.08026700
C      -4.52294100     10.35010000      5.83264300
H      -2.91831800      8.95688000      6.14155600
C      -6.75143500      9.43708800      5.83148600
H      -6.89482500      7.29292600      6.16577200
C      -5.90548800     10.54529100      5.70394300
H      -3.83391200     11.19198600      5.73860700
H      -7.82976500      9.57071300      5.72325200
C      -6.45933300     11.92203200      5.45293100
H      -7.42701100     11.87513900      4.93680100
H      -6.61385600     12.45366800      6.40469200
H      -5.76753900     12.52267200      4.84738300
C      -1.65746700      6.72910600      9.48171200
H      -0.74527900      8.08678500      9.78594200
C      -2.49202100     14.61333700      3.18494500
C       1.40504000     12.30053300      1.02629600
C      -2.31171400      7.15519200      2.97308000
C       1.87101700      6.26120300      5.67318400
C       4.56506000     12.66000200      9.98161600
C      -0.35520300     13.44275600     10.26059200
C       5.29690100     11.45024900     16.38859500
C       0.60304100     10.72477700     18.01850000
F       0.05393600      9.51692700     18.15648600
F       1.13006500     11.06706800     19.19294200
F      -0.38897800     11.57589300     17.75521200
F       5.97175300     10.39093400     16.84112500
F       5.40275700     12.40647200     17.30946000
F       5.91798700     11.87109100     15.28583000
F      -1.25907000     13.63394700     11.21781200
F      -0.08596400     14.62385100      9.70237000
F      -0.93508200     12.69086600      9.31531200
F       4.46854600     12.68522500      8.64704300
F       5.01501500     13.85715300     10.35616300
F       5.49619400     11.76150200     10.30246400
F       2.05633100     11.13913800      1.05685800
F       2.31966000     13.27253500      1.05209400
F       0.77473800     12.38784900     -0.14427900
F      -2.49491300     15.32055500      2.05783500
F      -2.36087100     15.46602200      4.20163800
F      -3.69570100     14.04472400      3.30965000
F      -3.49392100      7.67680500      3.29738700
F      -2.43178500      5.83603000      2.90812200
F      -2.03037600      7.58916800      1.73610700
F       2.04268800      6.36338400      6.99153100
F       3.03142600      6.63087000      5.11067000
F       1.67607100      4.98065400      5.37021200
C       5.48756500      9.02849600      8.31243400
C       5.76730000      8.79704200      6.95841000
C       6.55297500      9.09203000      9.22022800
C       7.08114400      8.64246100      6.52257000
H       4.94384400      8.69541300      6.24861700
C       7.86626600      8.94069900      8.78338600
H       6.35086300      9.29122600     10.27397800
C       8.13437400      8.71740100      7.43304000
H       7.28157700      8.45100000      5.46752900
H       8.68575800      9.00518600      9.50051700
H       9.16346400      8.59804800      7.09146100

