%NProcShared=32
%Mem=112GB
# opt=(calcfc,ts,noeigentest) freq b3lyp/6-31G(d) 5d em=gd3bj

 energy: -183.323937874908 gnorm: 0.000528338572 xtb: 6.6.1 (8d0f1dd)

0 2
C    0.421600    -2.952300    0.685500
C    -0.569300    -3.599800    -0.285500
C    -0.823300    -5.022600    0.274600
C    -1.289200    -5.017400    1.724900
C    -0.060500    -2.993400    2.111400
H    -1.575300    -5.520900    -0.338300
H    -2.258600    -4.510600    1.831800
H    -1.399200    -6.043700    2.082300
H    -0.995900    -2.425800    2.228000
H    0.676200    -2.567200    2.788700
H    0.107700    -5.589100    0.215100
C    -1.898300    -2.836200    -0.378600
H    -1.751000    -1.887500    -0.889000
H    -2.614700    -3.420600    -0.951300
H    -2.330700    -2.628700    0.595100
C    -0.040900    -3.757400    -1.713500
H    -0.759500    -4.329400    -2.296000
H    0.076600    -2.789700    -2.192900
H    0.909900    -4.282900    -1.731800
C    1.856400    -3.109800    0.485600
C    2.635600    -3.779100    1.441700
C    2.515300    -2.585000    -0.636400
C    3.994200    -3.944200    1.261000
H    2.153800    -4.203000    2.308900
C    3.875800    -2.742800    -0.804100
H    1.959000    -2.017800    -1.365000
C    4.625300    -3.427500    0.139500
H    4.567700    -4.481300    2.003500
H    4.358400    -2.322200    -1.674200
H    5.689500    -3.552700    0.005900
S    -0.680200    -4.384800    4.188700
O    -1.918300    -3.674200    4.413900
O    0.483400    -3.913800    4.895100
C    -0.925600    -6.121100    4.517400
C    0.150000    -6.985500    4.422300
C    -2.189700    -6.583400    4.828300
C    -0.052500    -8.336800    4.632700
H    1.122700    -6.584700    4.186600
C    -2.383000    -7.937900    5.040400
H    -2.998500    -5.872600    4.897200
C    -1.320600    -8.830200    4.939100
H    0.778400    -9.021900    4.556100
H    -3.369900    -8.303000    5.282200
C    -1.521700    -10.297200    5.152800
H    -0.959700    -10.629000    6.024500
H    -2.571400    -10.529800    5.306200
H    -1.158000    -10.856900    4.293000
N    -0.285700    -4.371700    2.545200
O    1.898800    -0.437400    2.221600
O    0.180800    -0.296100    4.317500
O    1.368000    1.396100    -2.041400
O    -0.587000    2.570600    -3.567300
C    2.524200    0.095300    1.134000
C    3.895100    0.319100    1.052500
C    4.431200    0.921600    -0.068400
C    3.627700    1.326900    -1.118800
C    2.263500    1.069100    -1.078000
C    1.721100    0.408000    0.033000
C    2.454000    -0.221600    3.521100
C    2.877700    -1.544600    4.152200
C    1.353800    0.498100    4.354200
C    1.824700    0.619300    5.793400
C    2.818500    1.530600    6.130600
C    3.270200    1.620200    7.435100
C    2.730800    0.805300    8.416700
C    1.736200    -0.098700    8.085800
C    1.285000    -0.193500    6.780600
C    1.031800    1.891900    3.815200
C    1.902700    2.664600    3.058300
C    1.522200    3.918800    2.609300
C    0.274400    4.427200    2.920000
C    -0.595900    3.671000    3.687100
C    -0.219100    2.416300    4.127000
C    1.754500    2.206300    -3.144800
C    1.934000    3.664800    -2.727400
C    0.592500    2.059000    -4.164500
C    0.915800    2.870600    -5.407800
C    0.225600    4.039500    -5.694300
C    0.536700    4.776800    -6.823900
C    1.541100    4.353800    -7.676900
C    2.230000    3.184800    -7.398000
C    1.918500    2.445200    -6.271400
C    0.356700    0.609700    -4.581400
C    1.276500    -0.415800    -4.411900
C    0.975600    -1.702500    -4.828500
C    -0.241700    -1.980800    -5.423900
C    -1.163500    -0.962600    -5.600500
C    -0.864000    0.320200    -5.182800
H    -0.021200    -0.445600    3.385200
H    -0.704300    2.095500    -2.734200
H    4.545500    0.017300    1.858100
H    5.495800    1.091600    -0.120400
H    4.072500    1.824200    -1.965000
H    3.326500    0.432500    3.459700
H    2.012300    -2.132700    4.452600
H    3.482000    -1.349700    5.034100
H    3.461700    -2.115000    3.433400
H    3.237500    2.176200    5.372900
H    4.045500    2.329600    7.685200
H    3.084600    0.876000    9.434700
H    1.309200    -0.738600    8.844200
H    0.516700    -0.902300    6.513800
H    2.886300    2.307100    2.793900
H    2.212300    4.498100    2.012600
H    -0.017400    5.405700    2.568300
H    -1.571900    4.056800    3.942600
H    -0.897100    1.818200    4.718600
H    2.680700    1.831400    -3.595900
H    0.972400    4.082500    -2.438100
H    2.333700    4.238000    -3.559000
H    2.613000    3.734400    -1.881000
H    -0.556400    4.362300    -5.025300
H    -0.007700    5.685600    -7.035500
H    1.785300    4.930000    -8.557400
H    3.011500    2.845500    -8.062400
H    2.450600    1.527600    -6.067500
H    2.233500    -0.235000    -3.946900
H    1.699800    -2.491200    -4.683700
H    -0.470900    -2.986100    -5.745100
H    -2.117500    -1.165800    -6.064500
H    -1.579800    1.118900    -5.312100
S    -0.000000    -0.000000    0.000000
H    0.199800    -1.399000    0.324800

