%NProcShared=32
%Mem=112GB
# opt=(calcfc,ts,noeigentest) freq b3lyp/6-31G(d) 5d em=gd3bj

 energy: -183.324993814416 gnorm: 0.000654981198 xtb: 6.6.1 (8d0f1dd)

0 2
C    0.421600    -2.952300    0.685500
C    -0.589000    -3.592000    -0.271700
C    -0.105900    -5.051100    -0.459800
C    1.325800    -5.129700    -0.971800
C    1.844300    -3.098200    0.219000
H    -0.763100    -5.560200    -1.165800
H    1.417300    -4.658900    -1.960200
H    1.635500    -6.174100    -1.058300
H    2.010600    -2.526300    -0.708800
H    2.542600    -2.723800    0.965700
H    -0.160400    -5.564100    0.501900
C    -0.652500    -2.889600    -1.634800
H    -1.174100    -1.940800    -1.542800
H    -1.199000    -3.506600    -2.343900
H    0.329800    -2.689800    -2.052500
C    -2.016600    -3.638700    0.279500
H    -2.650800    -4.176300    -0.421700
H    -2.416800    -2.635600    0.391200
H    -2.058700    -4.144800    1.239700
C    0.185700    -3.072500    2.121300
C    0.996300    -3.913300    2.895200
C    -0.858000    -2.393300    2.762600
C    0.729600    -4.111100    4.236300
H    1.805500    -4.444400    2.417300
C    -1.115500    -2.592000    4.105400
H    -1.449200    -1.684500    2.203800
C    -0.331200    -3.461100    4.846900
H    1.354300    -4.781800    4.809100
H    -1.926600    -2.058500    4.578100
H    -0.536900    -3.621400    5.894400
S    3.821500    -4.501500    -0.568600
O    3.915900    -3.820500    -1.842400
O    4.627500    -3.971900    0.502900
C    4.150100    -6.239100    -0.791700
C    4.246500    -7.053000    0.321900
C    4.249600    -6.757900    -2.068700
C    4.438200    -8.411500    0.147700
H    4.175400    -6.607500    1.301000
C    4.442600    -8.118500    -2.233700
H    4.176200    -6.085400    -2.909100
C    4.531900    -8.961700    -1.129900
H    4.512400    -9.056200    1.010500
H    4.519800    -8.528200    -3.229600
C    4.701800    -10.437400    -1.304000
H    5.416700    -10.830200    -0.585100
H    5.037400    -10.676900    -2.309000
H    3.748900    -10.938200    -1.132800
N    2.219000    -4.491300    -0.024700
O    2.245600    -0.377700    1.866900
O    1.223800    -0.670000    4.420300
O    1.066200    1.031800    -2.444500
O    -1.069800    1.731100    -4.037600
C    2.689700    0.034800    0.649000
C    4.032700    0.196000    0.322800
C    4.387900    0.696300    -0.913500
C    3.430100    1.033100    -1.850200
C    2.085400    0.807600    -1.576600
C    1.715700    0.294100    -0.325300
C    3.127900    -0.315800    2.989100
C    3.706200    -1.690800    3.312500
C    2.282400    0.232000    4.171600
C    3.158800    0.316900    5.411500
C    4.183000    1.253500    5.484900
C    4.994300    1.315600    6.603900
C    4.787900    0.448700    7.664400
C    3.761400    -0.477300    7.600700
C    2.951700    -0.543800    6.480300
C    1.715100    1.620700    3.883100
C    2.248100    2.508300    2.958100
C    1.673100    3.754400    2.768900
C    0.566700    4.136000    3.505800
C    0.033300    3.260200    4.436400
C    0.603200    2.014800    4.620400
C    1.315000    1.700100    -3.677100
C    1.373600    3.211000    -3.461200
C    0.148400    1.299700    -4.616800
C    0.347000    1.997000    -5.953400
C    -0.477400    3.042000    -6.344000
C    -0.266900    3.684500    -7.552300
C    0.769300    3.289800    -8.380400
C    1.590500    2.241500    -7.998700
C    1.379500    1.596000    -6.793800
C    0.089000    -0.205000    -4.871100
C    1.114400    -1.094100    -4.580700
C    0.976700    -2.442400    -4.869600
C    -0.182500    -2.919900    -5.453500
C    -1.210700    -2.039300    -5.747100
C    -1.073500    -0.695100    -5.458400
H    0.769700    -0.817800    3.579400
H    -1.088600    1.383600    -3.136300
H    4.806700    -0.076700    1.021300
H    5.432200    0.831700    -1.150300
H    3.745900    1.449000    -2.792600
H    3.943600    0.385800    2.796300
H    2.911400    -2.347600    3.657800
H    4.452800    -1.594600    4.096100
H    4.171800    -2.131200    2.431600
H    4.344100    1.942300    4.668600
H    5.790000    2.045000    6.647500
H    5.423100    0.498600    8.536700
H    3.589900    -1.154300    8.424800
H    2.150500    -1.262600    6.421300
H    3.108200    2.246700    2.359200
H    2.097500    4.427000    2.037000
H    0.123700    5.109400    3.354800
H    -0.829100    3.546800    5.020100
H    0.188900    1.323300    5.339200
H    2.250600    1.354900    -4.128600
H    0.393800    3.576600    -3.163000
H    1.674700    3.706200    -4.379700
H    2.089200    3.443200    -2.675100
H    -1.282000    3.344600    -5.692900
H    -0.913900    4.498500    -7.844500
H    0.936400    3.793700    -9.321100
H    2.398700    1.923600    -8.641400
H    2.017000    0.771900    -6.507400
H    2.033200    -0.764700    -4.118700
H    1.788200    -3.116200    -4.630900
H    -0.284000    -3.971700    -5.677700
H    -2.120400    -2.399500    -6.204500
H    -1.871400    -0.002000    -5.681500
S    0.000000    -0.000000    0.000000
H    0.199800    -1.399000    0.324800

